(set-info :smt-lib-version 2.6)
(set-logic QF_S)
(set-info :source |
Generated by: Hung-En Wang, Tzung-Lin Tsai, Chun-Han Lin, Fang Yu, and Jie-Hong R. Jiang
Generated on: 2019-02-28
Generator: Stranger
Application: Security analysis of string manipulating web applications
Target solver: CVC4, Norn, Z3-str2
Publication:
Hung-En Wang, Tzung-Lin Tsai, Chun-Han Lin, Fang Yu, Jie-Hong R. Jiang:
String Analysis via Automata Manipulation with Logic Circuit Representation. CAV (1) 2016: 241-260.
|)
(set-info :license "https://creativecommons.org/licenses/by/4.0/")
(set-info :category "industrial")
(set-info :status unknown)

(declare-fun sigmaStar_0 () String)
(declare-fun sigmaStar_6 () String)
(declare-fun literal_9 () String)
(declare-fun x_7 () String)
(declare-fun x_10 () String)
(declare-fun literal_11 () String)
(declare-fun x_12 () String)
(assert (= x_7 (str.replace sigmaStar_0 "\u{2f}\u{5b}\u{5e}\u{41}\u{53}\u{43}\u{52}\u{20}\u{2e}\u{5c}\u{2d}\u{40}\u{3a}\u{2f}\u{5d}\u{2f}" "")))
(assert (= literal_9 "\u{3c}\u{74}\u{64}\u{3e}\u{55}\u{52}\u{4c}\u{3a}\u{20}"))
(assert (= x_10 (str.++ literal_9 x_7)))
(assert (= literal_11 "\u{3c}\u{2f}\u{74}\u{64}\u{3e}"))
(assert (= x_12 (str.++ x_10 literal_11)))
(assert (str.in_re x_12 (re.++ (re.* re.allchar) (re.++ (str.to_re "\u{5c}\u{3c}\u{53}\u{43}\u{52}\u{49}\u{50}\u{54}") (re.* re.allchar)))))
(check-sat)
(exit)
